db/data/2587212829137185877223413177327164070.z3.out
-------------------
2500.167854704
